proyfinal/src/viki/013/experimentInOfficeAgust.take6.output/275853ff-2b65-4a35-b0df-cdbdeb2d8ec3.als.dat
{'cnf.clauses': '118081',
 'cnf.totvars': '69608',
 'conflict literals': '10762',
 'conflicts': '587',
 'decisions': '8910',
 'memused.mb': '17.90',
 'outcome': 'UNSAT',
 'propagations': '781343',
 'restarts': '5',
 'solver.msecs': 69,
 'task.msecs': 114}
