proyfinal/src/viki/013/experimentInOfficeAgust.take6.output/275853ff-2b65-4a35-b0df-cdbdeb2d8ec3.als.out
Reading from standard input... Use '--help' for help.
============================[ Problem Statistics ]=============================
|                                                                             |
|  Number of variables:         69608                                         |
|  Number of clauses:          118081                                         |
|  Parse time:                   0.02 s                                       |
|                                                                             |
============================[ Search Statistics ]==============================
| Conflicts |          ORIGINAL         |          LEARNT          | Progress |
|           |    Vars  Clauses Literals |    Limit  Clauses Lit/Cl |          |
===============================================================================
|       100 |   60517    92153   227786 |    33789       96     11 | 13.060 % |
|       250 |   60293    91255   225751 |    37168      242     16 | 13.382 % |
|       475 |   60288    91252   225744 |    40885      465     20 | 13.389 % |
===============================================================================
restarts              : 5
conflicts             : 587            (8428 /sec)
decisions             : 8910           (0.00 % random) (127925 /sec)
propagations          : 781343         (11218134 /sec)
conflict literals     : 10762          (30.00 % deleted)
Memory used           : 17.90 MB
CPU time              : 0.06965 s

UNSATISFIABLE
